Version identifier: 22.1.1.0 | 2022-11-28 | 9160aff4d
CPXPARAM_ClockType                               1
CPXPARAM_Read_DataCheck                          1
CPXPARAM_Threads                                 1
CPXPARAM_TimeLimit                               7200
CPXPARAM_MIP_Tolerances_AbsMIPGap                0
CPXPARAM_MIP_Tolerances_MIPGap                   0
CPXPARAM_MIP_Tolerances_Integrality              0
Tried aggregator 5 times.
MIP Presolve eliminated 28638 rows and 7124 columns.
MIP Presolve modified 18 coefficients.
Aggregator did 2223 substitutions.
Reduced MIP has 11514 rows, 5501 columns, and 34926 nonzeros.
Reduced MIP has 5501 binaries, 0 generals, 0 SOSs, and 0 indicators.
Presolve time = 0.11 sec. (81.41 ticks)
Found incumbent of value 0.000000 after 0.13 sec. (89.98 ticks)
Probing time = 0.01 sec. (3.54 ticks)
Tried aggregator 1 time.
Detecting symmetries...
Reduced MIP has 11514 rows, 5501 columns, and 34926 nonzeros.
Reduced MIP has 5501 binaries, 0 generals, 0 SOSs, and 0 indicators.
Presolve time = 0.04 sec. (24.37 ticks)
Probing time = 0.01 sec. (3.40 ticks)
Clique table members: 12049.
MIP emphasis: balance optimality and feasibility.
MIP search method: dynamic search.
Parallel mode: none, using 1 thread.
Root relaxation solution time = 1.77 sec. (1341.08 ticks)

        Nodes                                         Cuts/
   Node  Left     Objective  IInf  Best Integer    Best Bound    ItCnt     Gap

*     0+    0                            0.0000     4750.0000              --- 
      0     0     4750.0000  1735        0.0000     4750.0000     5567     --- 
*     0+    0                         4734.0000     4750.0000             0.34%
      0     0     4750.0000  1563     4734.0000     Cuts: 721     8734    0.34%
*     0+    0                         4750.0000     4750.0000             0.00%
      0     0        cutoff           4750.0000     4750.0000     8734    0.00%
Elapsed time = 6.53 sec. (5089.79 ticks, tree = 0.01 MB, solutions = 3)

Clique cuts applied:  266
Implied bound cuts applied:  4

Root node processing (before b&c):
  Real time             =    6.53 sec. (5090.45 ticks)
Sequential b&c:
  Real time             =    0.00 sec. (0.00 ticks)
                          ------------
Total (root+branch&cut) =    6.53 sec. (5090.45 ticks)
Solution is feasible.

---------------------
@@@ MIP_optimal
>>> Benchmark mc2024_track1_180.cnf k 10 OPT 4750 TimeCost 15.259205341339111 TimeSolve 6.594563722610474 TimeRead 0.005881071090698242 TimeTrans 8.65876054763794
